nNurses = 167;
nHours = 36;
minHours = 7;
maxHours = 12;
maxConsec = 11;
maxPresence = 8;
demand = [31, 27, 26, 27, 31, 29, 30, 30, 32, 34, 32, 34, 36, 33, 37, 35, 35, 33, 28, 29, 25, 23, 23, 25, 28, 29, 26, 30, 32, 27, 30, 34, 33, 33, 33, 29];
